n_res = 4;
rcap = [8, 11, 61, 26];
rtype = [1, 1, 2, 2];
n_tasks = 16;
modes = [ {1}, {2}, {3}, {4}, {5}, {6}, {7}, {8}, {9}, {10}, {11}, {12}, {13}, {14}, {15}, {16} ];
succ = [ {5, 6, 7}, {4, 6, 8}, {14}, {9}, {15, 16}, {11, 13, 16}, {10, 16}, {10, 11, 13}, {10, 11, 13}, {12}, {12}, {14, 15}, {14, 15}, {}, {}, {} ];
n_opt = 16;
dur = [1, 8, 9, 5, 5, 3, 10, 2, 8, 9, 10, 6, 5, 1, 8, 2];
rreq = [|  0,  0,  2,  0,  0,  5,  0,  0,  8,  0,  0,  5,  0,  7,  0,  0
        |  3,  4,  0,  9,  6,  0,  3,  1,  0,  4,  9,  0,  5,  0,  2,  4
        |  8, 10,  0, 10,  3, 10,  0,  0,  0,  1,  0,  4,  5,  7,  3,  0
        |  0,  0,  5,  0,  0,  0,  4,  2,  4,  0,  4,  0,  0,  0,  0,  7 |];
